; benchmark generated from python API
(set-info :status unknown)
(declare-fun x_epoch () (_ BitVec 32))
(declare-fun x_plus_epoch () (_ BitVec 32))
(declare-fun x_plus_month () (_ BitVec 32))
(declare-fun x_plus_year () (_ BitVec 32))
(declare-fun x_plus_day () (_ BitVec 32))
(declare-fun x_plus_1_epoch () (_ BitVec 32))
(assert
 (bvsle (_ bv4294930771 32) x_epoch))
(assert
 (bvsge (_ bv36523 32) x_epoch))
(assert
 (bvsge x_epoch (_ bv8341 32)))
(assert
 (bvsle x_epoch (_ bv8705 32)))
(assert
 (bvsle (_ bv4294930771 32) x_plus_epoch))
(assert
 (bvsge (_ bv36523 32) x_plus_epoch))
(assert
 (let (($x2508 (= x_plus_month (_ bv11 32))))
 (let (($x8138 (= x_plus_month (_ bv9 32))))
 (let (($x3393 (= x_plus_month (_ bv6 32))))
 (let (($x2214 (= x_plus_month (_ bv4 32))))
 (let ((?x7553 (ite (or $x2214 $x3393 $x8138 $x2508) (_ bv30 32) (_ bv31 32))))
 (let (($x1408 (and (= (bvsmod x_plus_year (_ bv4 32)) (_ bv0 32)) (and (distinct (bvsmod x_plus_year (_ bv100 32)) (_ bv0 32)) true))))
 (let (($x1516 (or $x1408 (= (bvsmod x_plus_year (_ bv400 32)) (_ bv0 32)))))
 (let (($x4486 (= x_plus_month (_ bv2 32))))
 (let (($x1138 (bvsle (_ bv1 32) x_plus_day)))
 (let (($x2456 (bvsle (_ bv1 32) x_plus_month)))
 (let (($x3273 (bvsle (_ bv1900 32) x_plus_year)))
 (and $x3273 (bvsge (_ bv2100 32) x_plus_year) $x2456 (bvsge (_ bv12 32) x_plus_month) $x1138 (bvsle x_plus_day (ite $x4486 (ite $x1516 (_ bv29 32) (_ bv28 32)) ?x7553)))))))))))))))
(assert
 (let (($x1408 (and (= (bvsmod x_plus_year (_ bv4 32)) (_ bv0 32)) (and (distinct (bvsmod x_plus_year (_ bv100 32)) (_ bv0 32)) true))))
 (let (($x1516 (or $x1408 (= (bvsmod x_plus_year (_ bv400 32)) (_ bv0 32)))))
 (let ((?x3062 (ite (= (_ bv2 32) x_plus_month) (ite $x1516 (_ bv31 32) (_ bv31 32)) (ite (= (_ bv1 32) x_plus_month) (ite $x1516 (_ bv0 32) (_ bv0 32)) (_ bv0 32)))))
 (let ((?x5284 (ite (= (_ bv4 32) x_plus_month) (ite $x1516 (_ bv91 32) (_ bv90 32)) (ite (= (_ bv3 32) x_plus_month) (ite $x1516 (_ bv60 32) (_ bv59 32)) ?x3062))))
 (let ((?x1618 (ite (= (_ bv6 32) x_plus_month) (ite $x1516 (_ bv152 32) (_ bv151 32)) (ite (= (_ bv5 32) x_plus_month) (ite $x1516 (_ bv121 32) (_ bv120 32)) ?x5284))))
 (let ((?x5063 (ite (= (_ bv8 32) x_plus_month) (ite $x1516 (_ bv213 32) (_ bv212 32)) (ite (= (_ bv7 32) x_plus_month) (ite $x1516 (_ bv182 32) (_ bv181 32)) ?x1618))))
 (let ((?x877 (ite (= (_ bv10 32) x_plus_month) (ite $x1516 (_ bv274 32) (_ bv273 32)) (ite (= (_ bv9 32) x_plus_month) (ite $x1516 (_ bv244 32) (_ bv243 32)) ?x5063))))
 (let ((?x5437 (ite (= (_ bv12 32) x_plus_month) (ite $x1516 (_ bv335 32) (_ bv334 32)) (ite (= (_ bv11 32) x_plus_month) (ite $x1516 (_ bv305 32) (_ bv304 32)) ?x877))))
 (let ((?x3923 (bvadd (bvmul (_ bv365 32) (bvsub x_plus_year (_ bv1 32))) (bvsdiv (bvsub x_plus_year (_ bv1 32)) (_ bv4 32)))))
 (let ((?x2076 (bvadd (bvsub ?x3923 (bvsdiv (bvsub x_plus_year (_ bv1 32)) (_ bv100 32))) (bvsdiv (bvsub x_plus_year (_ bv1 32)) (_ bv400 32)))))
 (= x_plus_epoch (bvsub (bvadd (bvadd ?x2076 ?x5437) (bvsub x_plus_day (_ bv1 32))) (_ bv730179 32))))))))))))))
(assert
 (let ((?x1201 (bvadd x_epoch (_ bv730179 32))))
 (let ((?x33573 (bvsmod ?x1201 (_ bv146097 32))))
 (let ((?x2516 (bvsdiv ?x33573 (_ bv36524 32))))
 (let ((?x15886 (ite (bvsle (_ bv4 32) ?x2516) (_ bv3 32) ?x2516)))
 (let ((?x8168 (bvsub ?x33573 (bvmul ?x15886 (_ bv36524 32)))))
 (let ((?x1140 (bvsmod ?x8168 (_ bv1461 32))))
 (let ((?x1161 (bvsdiv ?x1140 (_ bv365 32))))
 (let ((?x11749 (ite (bvsle (_ bv4 32) ?x1161) (_ bv3 32) ?x1161)))
 (let ((?x3564 (bvadd (bvadd (bvmul (bvsdiv ?x1201 (_ bv146097 32)) (_ bv400 32)) (bvmul ?x15886 (_ bv100 32))) (bvmul (bvsdiv ?x8168 (_ bv1461 32)) (_ bv4 32)))))
 (let ((?x26236 (bvadd (bvadd ?x3564 ?x11749) (_ bv1 32))))
 (let (($x11908 (or (and (= (bvsmod ?x26236 (_ bv4 32)) (_ bv0 32)) (and (distinct (bvsmod ?x26236 (_ bv100 32)) (_ bv0 32)) true)) (= (bvsmod ?x26236 (_ bv400 32)) (_ bv0 32)))))
 (let ((?x2337 (bvsub ?x1140 (bvmul ?x11749 (_ bv365 32)))))
 (let ((?x3734 (ite $x11908 (_ bv31 32) (_ bv31 32))))
 (let (($x5366 (bvsge ?x2337 ?x3734)))
 (let ((?x5792 (ite $x5366 (bvadd (bvsub ?x2337 ?x3734) (_ bv1 32)) (bvadd (bvsub ?x2337 (ite $x11908 (_ bv0 32) (_ bv0 32))) (_ bv1 32)))))
 (let ((?x47417 (ite $x11908 (_ bv60 32) (_ bv59 32))))
 (let (($x805 (bvsge ?x2337 ?x47417)))
 (let ((?x2296 (ite $x11908 (_ bv91 32) (_ bv90 32))))
 (let (($x3364 (bvsge ?x2337 ?x2296)))
 (let ((?x20760 (ite $x3364 (bvadd (bvsub ?x2337 ?x2296) (_ bv1 32)) (ite $x805 (bvadd (bvsub ?x2337 ?x47417) (_ bv1 32)) ?x5792))))
 (let ((?x37289 (ite $x11908 (_ bv121 32) (_ bv120 32))))
 (let (($x1945 (bvsge ?x2337 ?x37289)))
 (let ((?x2125 (ite $x11908 (_ bv152 32) (_ bv151 32))))
 (let (($x5091 (bvsge ?x2337 ?x2125)))
 (let ((?x5445 (ite $x5091 (bvadd (bvsub ?x2337 ?x2125) (_ bv1 32)) (ite $x1945 (bvadd (bvsub ?x2337 ?x37289) (_ bv1 32)) ?x20760))))
 (let ((?x1626 (ite $x11908 (_ bv182 32) (_ bv181 32))))
 (let (($x583 (bvsge ?x2337 ?x1626)))
 (let ((?x3068 (ite $x11908 (_ bv213 32) (_ bv212 32))))
 (let (($x2937 (bvsge ?x2337 ?x3068)))
 (let ((?x701 (ite $x2937 (bvadd (bvsub ?x2337 ?x3068) (_ bv1 32)) (ite $x583 (bvadd (bvsub ?x2337 ?x1626) (_ bv1 32)) ?x5445))))
 (let ((?x1549 (ite $x11908 (_ bv244 32) (_ bv243 32))))
 (let (($x2961 (bvsge ?x2337 ?x1549)))
 (let ((?x8141 (ite $x11908 (_ bv274 32) (_ bv273 32))))
 (let (($x2577 (bvsge ?x2337 ?x8141)))
 (let ((?x596 (ite $x2577 (bvadd (bvsub ?x2337 ?x8141) (_ bv1 32)) (ite $x2961 (bvadd (bvsub ?x2337 ?x1549) (_ bv1 32)) ?x701))))
 (let ((?x903 (ite $x11908 (_ bv305 32) (_ bv304 32))))
 (let (($x1761 (bvsge ?x2337 ?x903)))
 (let ((?x6357 (ite $x11908 (_ bv335 32) (_ bv334 32))))
 (let (($x783 (bvsge ?x2337 ?x6357)))
 (let ((?x42519 (ite $x783 (bvadd (bvsub ?x2337 ?x6357) (_ bv1 32)) (ite $x1761 (bvadd (bvsub ?x2337 ?x903) (_ bv1 32)) ?x596))))
 (let ((?x4253 (bvmul (_ bv0 32) (_ bv12 32))))
 (let ((?x51078 (bvadd ?x4253 (_ bv2 32))))
 (let ((?x61399 (ite $x5091 (_ bv6 32) (ite $x1945 (_ bv5 32) (ite $x3364 (_ bv4 32) (ite $x805 (_ bv3 32) (ite $x5366 (_ bv2 32) (_ bv1 32))))))))
 (let ((?x6068 (ite $x1761 (_ bv11 32) (ite $x2577 (_ bv10 32) (ite $x2961 (_ bv9 32) (ite $x2937 (_ bv8 32) (ite $x583 (_ bv7 32) ?x61399)))))))
 (let ((?x11059 (ite $x783 (_ bv12 32) ?x6068)))
 (let ((?x57332 (bvadd ?x11059 ?x51078)))
 (let ((?x87260 (bvsub (ite (bvuge ?x57332 (_ bv2147483648 32)) (bvsub ?x57332 (_ bv0 32)) ?x57332) (_ bv1 32))))
 (let ((?x73660 (bvsmod ?x87260 (_ bv12 32))))
 (let ((?x79466 (bvadd ?x73660 (_ bv1 32))))
 (let ((?x73236 (ite (or (= ?x79466 (_ bv4 32)) (= ?x79466 (_ bv6 32)) (= ?x79466 (_ bv9 32)) (= ?x79466 (_ bv11 32))) (_ bv30 32) (_ bv31 32))))
 (let ((?x9982 (bvsdiv ?x87260 (_ bv12 32))))
 (let ((?x42975 (ite (and (bvuge ?x87260 (_ bv2147483648 32)) (and (distinct (_ bv0 32) ?x73660) true)) (bvsub ?x9982 (_ bv1 32)) ?x9982)))
 (let ((?x73282 (bvadd (_ bv0 32) ?x42975)))
 (let ((?x76044 (bvadd ?x26236 ?x73282)))
 (let (($x83389 (or (and (= (bvsmod ?x76044 (_ bv4 32)) (_ bv0 32)) (and (distinct (bvsmod ?x76044 (_ bv100 32)) (_ bv0 32)) true)) (= (bvsmod ?x76044 (_ bv400 32)) (_ bv0 32)))))
 (let ((?x77727 (ite (= ?x79466 (_ bv2 32)) (ite $x83389 (_ bv29 32) (_ bv28 32)) ?x73236)))
 (let (($x58947 (bvsgt (_ bv1 32) ?x42519)))
 (let ((?x30279 (ite $x58947 (_ bv1 32) (ite (bvsgt ?x42519 ?x77727) ?x77727 ?x42519))))
 (let ((?x19442 (ite (bvsgt (_ bv1 32) ?x30279) (_ bv1 32) (ite (bvsgt ?x30279 ?x77727) ?x77727 ?x30279))))
 (let ((?x57993 (ite (= (_ bv2 32) ?x79466) (ite $x83389 (_ bv31 32) (_ bv31 32)) (ite (= (_ bv1 32) ?x79466) (ite $x83389 (_ bv0 32) (_ bv0 32)) (_ bv0 32)))))
 (let ((?x16318 (ite (= (_ bv4 32) ?x79466) (ite $x83389 (_ bv91 32) (_ bv90 32)) (ite (= (_ bv3 32) ?x79466) (ite $x83389 (_ bv60 32) (_ bv59 32)) ?x57993))))
 (let ((?x15146 (ite (= (_ bv6 32) ?x79466) (ite $x83389 (_ bv152 32) (_ bv151 32)) (ite (= (_ bv5 32) ?x79466) (ite $x83389 (_ bv121 32) (_ bv120 32)) ?x16318))))
 (let ((?x13048 (ite (= (_ bv8 32) ?x79466) (ite $x83389 (_ bv213 32) (_ bv212 32)) (ite (= (_ bv7 32) ?x79466) (ite $x83389 (_ bv182 32) (_ bv181 32)) ?x15146))))
 (let ((?x73510 (ite (= (_ bv10 32) ?x79466) (ite $x83389 (_ bv274 32) (_ bv273 32)) (ite (= (_ bv9 32) ?x79466) (ite $x83389 (_ bv244 32) (_ bv243 32)) ?x13048))))
 (let ((?x19479 (ite (= (_ bv12 32) ?x79466) (ite $x83389 (_ bv335 32) (_ bv334 32)) (ite (= (_ bv11 32) ?x79466) (ite $x83389 (_ bv305 32) (_ bv304 32)) ?x73510))))
 (let ((?x59819 (bvadd (bvmul (_ bv365 32) (bvsub ?x76044 (_ bv1 32))) (bvsdiv (bvsub ?x76044 (_ bv1 32)) (_ bv4 32)))))
 (let ((?x60642 (bvadd (bvsub ?x59819 (bvsdiv (bvsub ?x76044 (_ bv1 32)) (_ bv100 32))) (bvsdiv (bvsub ?x76044 (_ bv1 32)) (_ bv400 32)))))
 (let ((?x77824 (bvadd (bvadd (bvsub (bvadd (bvadd ?x60642 ?x19479) (bvsub ?x19442 (_ bv1 32))) (_ bv730179 32)) (_ bv0 32)) (_ bv730179 32))))
 (let ((?x18121 (bvsmod ?x77824 (_ bv146097 32))))
 (let ((?x82293 (bvsdiv ?x18121 (_ bv36524 32))))
 (let ((?x67085 (ite (bvsle (_ bv4 32) ?x82293) (_ bv3 32) ?x82293)))
 (let ((?x76182 (bvsub ?x18121 (bvmul ?x67085 (_ bv36524 32)))))
 (let ((?x77833 (bvsmod ?x76182 (_ bv1461 32))))
 (let ((?x30692 (bvsdiv ?x77833 (_ bv365 32))))
 (let ((?x73298 (ite (bvsle (_ bv4 32) ?x30692) (_ bv3 32) ?x30692)))
 (let ((?x16212 (bvadd (bvadd (bvmul (bvsdiv ?x77824 (_ bv146097 32)) (_ bv400 32)) (bvmul ?x67085 (_ bv100 32))) (bvmul (bvsdiv ?x76182 (_ bv1461 32)) (_ bv4 32)))))
 (let ((?x79483 (bvadd (bvadd ?x16212 ?x73298) (_ bv1 32))))
 (let (($x11357 (= (_ bv0 32) (_ bv0 32))))
 (let ((?x57467 (ite $x11357 ?x76044 ?x79483)))
 (= x_plus_year ?x57467)))))))))))))))))))))))))))))))))))))))))))))))))))))))))))))))))))))))))))))))))
(assert
 (let ((?x1201 (bvadd x_epoch (_ bv730179 32))))
 (let ((?x33573 (bvsmod ?x1201 (_ bv146097 32))))
 (let ((?x2516 (bvsdiv ?x33573 (_ bv36524 32))))
 (let ((?x15886 (ite (bvsle (_ bv4 32) ?x2516) (_ bv3 32) ?x2516)))
 (let ((?x8168 (bvsub ?x33573 (bvmul ?x15886 (_ bv36524 32)))))
 (let ((?x1140 (bvsmod ?x8168 (_ bv1461 32))))
 (let ((?x1161 (bvsdiv ?x1140 (_ bv365 32))))
 (let ((?x11749 (ite (bvsle (_ bv4 32) ?x1161) (_ bv3 32) ?x1161)))
 (let ((?x3564 (bvadd (bvadd (bvmul (bvsdiv ?x1201 (_ bv146097 32)) (_ bv400 32)) (bvmul ?x15886 (_ bv100 32))) (bvmul (bvsdiv ?x8168 (_ bv1461 32)) (_ bv4 32)))))
 (let ((?x26236 (bvadd (bvadd ?x3564 ?x11749) (_ bv1 32))))
 (let (($x11908 (or (and (= (bvsmod ?x26236 (_ bv4 32)) (_ bv0 32)) (and (distinct (bvsmod ?x26236 (_ bv100 32)) (_ bv0 32)) true)) (= (bvsmod ?x26236 (_ bv400 32)) (_ bv0 32)))))
 (let ((?x2337 (bvsub ?x1140 (bvmul ?x11749 (_ bv365 32)))))
 (let ((?x3734 (ite $x11908 (_ bv31 32) (_ bv31 32))))
 (let (($x5366 (bvsge ?x2337 ?x3734)))
 (let ((?x5792 (ite $x5366 (bvadd (bvsub ?x2337 ?x3734) (_ bv1 32)) (bvadd (bvsub ?x2337 (ite $x11908 (_ bv0 32) (_ bv0 32))) (_ bv1 32)))))
 (let ((?x47417 (ite $x11908 (_ bv60 32) (_ bv59 32))))
 (let (($x805 (bvsge ?x2337 ?x47417)))
 (let ((?x2296 (ite $x11908 (_ bv91 32) (_ bv90 32))))
 (let (($x3364 (bvsge ?x2337 ?x2296)))
 (let ((?x20760 (ite $x3364 (bvadd (bvsub ?x2337 ?x2296) (_ bv1 32)) (ite $x805 (bvadd (bvsub ?x2337 ?x47417) (_ bv1 32)) ?x5792))))
 (let ((?x37289 (ite $x11908 (_ bv121 32) (_ bv120 32))))
 (let (($x1945 (bvsge ?x2337 ?x37289)))
 (let ((?x2125 (ite $x11908 (_ bv152 32) (_ bv151 32))))
 (let (($x5091 (bvsge ?x2337 ?x2125)))
 (let ((?x5445 (ite $x5091 (bvadd (bvsub ?x2337 ?x2125) (_ bv1 32)) (ite $x1945 (bvadd (bvsub ?x2337 ?x37289) (_ bv1 32)) ?x20760))))
 (let ((?x1626 (ite $x11908 (_ bv182 32) (_ bv181 32))))
 (let (($x583 (bvsge ?x2337 ?x1626)))
 (let ((?x3068 (ite $x11908 (_ bv213 32) (_ bv212 32))))
 (let (($x2937 (bvsge ?x2337 ?x3068)))
 (let ((?x701 (ite $x2937 (bvadd (bvsub ?x2337 ?x3068) (_ bv1 32)) (ite $x583 (bvadd (bvsub ?x2337 ?x1626) (_ bv1 32)) ?x5445))))
 (let ((?x1549 (ite $x11908 (_ bv244 32) (_ bv243 32))))
 (let (($x2961 (bvsge ?x2337 ?x1549)))
 (let ((?x8141 (ite $x11908 (_ bv274 32) (_ bv273 32))))
 (let (($x2577 (bvsge ?x2337 ?x8141)))
 (let ((?x596 (ite $x2577 (bvadd (bvsub ?x2337 ?x8141) (_ bv1 32)) (ite $x2961 (bvadd (bvsub ?x2337 ?x1549) (_ bv1 32)) ?x701))))
 (let ((?x903 (ite $x11908 (_ bv305 32) (_ bv304 32))))
 (let (($x1761 (bvsge ?x2337 ?x903)))
 (let ((?x6357 (ite $x11908 (_ bv335 32) (_ bv334 32))))
 (let (($x783 (bvsge ?x2337 ?x6357)))
 (let ((?x42519 (ite $x783 (bvadd (bvsub ?x2337 ?x6357) (_ bv1 32)) (ite $x1761 (bvadd (bvsub ?x2337 ?x903) (_ bv1 32)) ?x596))))
 (let ((?x4253 (bvmul (_ bv0 32) (_ bv12 32))))
 (let ((?x51078 (bvadd ?x4253 (_ bv2 32))))
 (let ((?x61399 (ite $x5091 (_ bv6 32) (ite $x1945 (_ bv5 32) (ite $x3364 (_ bv4 32) (ite $x805 (_ bv3 32) (ite $x5366 (_ bv2 32) (_ bv1 32))))))))
 (let ((?x6068 (ite $x1761 (_ bv11 32) (ite $x2577 (_ bv10 32) (ite $x2961 (_ bv9 32) (ite $x2937 (_ bv8 32) (ite $x583 (_ bv7 32) ?x61399)))))))
 (let ((?x11059 (ite $x783 (_ bv12 32) ?x6068)))
 (let ((?x57332 (bvadd ?x11059 ?x51078)))
 (let ((?x87260 (bvsub (ite (bvuge ?x57332 (_ bv2147483648 32)) (bvsub ?x57332 (_ bv0 32)) ?x57332) (_ bv1 32))))
 (let ((?x73660 (bvsmod ?x87260 (_ bv12 32))))
 (let ((?x79466 (bvadd ?x73660 (_ bv1 32))))
 (let ((?x73236 (ite (or (= ?x79466 (_ bv4 32)) (= ?x79466 (_ bv6 32)) (= ?x79466 (_ bv9 32)) (= ?x79466 (_ bv11 32))) (_ bv30 32) (_ bv31 32))))
 (let ((?x9982 (bvsdiv ?x87260 (_ bv12 32))))
 (let ((?x42975 (ite (and (bvuge ?x87260 (_ bv2147483648 32)) (and (distinct (_ bv0 32) ?x73660) true)) (bvsub ?x9982 (_ bv1 32)) ?x9982)))
 (let ((?x73282 (bvadd (_ bv0 32) ?x42975)))
 (let ((?x76044 (bvadd ?x26236 ?x73282)))
 (let (($x83389 (or (and (= (bvsmod ?x76044 (_ bv4 32)) (_ bv0 32)) (and (distinct (bvsmod ?x76044 (_ bv100 32)) (_ bv0 32)) true)) (= (bvsmod ?x76044 (_ bv400 32)) (_ bv0 32)))))
 (let ((?x77727 (ite (= ?x79466 (_ bv2 32)) (ite $x83389 (_ bv29 32) (_ bv28 32)) ?x73236)))
 (let (($x58947 (bvsgt (_ bv1 32) ?x42519)))
 (let ((?x30279 (ite $x58947 (_ bv1 32) (ite (bvsgt ?x42519 ?x77727) ?x77727 ?x42519))))
 (let ((?x19442 (ite (bvsgt (_ bv1 32) ?x30279) (_ bv1 32) (ite (bvsgt ?x30279 ?x77727) ?x77727 ?x30279))))
 (let ((?x57993 (ite (= (_ bv2 32) ?x79466) (ite $x83389 (_ bv31 32) (_ bv31 32)) (ite (= (_ bv1 32) ?x79466) (ite $x83389 (_ bv0 32) (_ bv0 32)) (_ bv0 32)))))
 (let ((?x16318 (ite (= (_ bv4 32) ?x79466) (ite $x83389 (_ bv91 32) (_ bv90 32)) (ite (= (_ bv3 32) ?x79466) (ite $x83389 (_ bv60 32) (_ bv59 32)) ?x57993))))
 (let ((?x15146 (ite (= (_ bv6 32) ?x79466) (ite $x83389 (_ bv152 32) (_ bv151 32)) (ite (= (_ bv5 32) ?x79466) (ite $x83389 (_ bv121 32) (_ bv120 32)) ?x16318))))
 (let ((?x13048 (ite (= (_ bv8 32) ?x79466) (ite $x83389 (_ bv213 32) (_ bv212 32)) (ite (= (_ bv7 32) ?x79466) (ite $x83389 (_ bv182 32) (_ bv181 32)) ?x15146))))
 (let ((?x73510 (ite (= (_ bv10 32) ?x79466) (ite $x83389 (_ bv274 32) (_ bv273 32)) (ite (= (_ bv9 32) ?x79466) (ite $x83389 (_ bv244 32) (_ bv243 32)) ?x13048))))
 (let ((?x19479 (ite (= (_ bv12 32) ?x79466) (ite $x83389 (_ bv335 32) (_ bv334 32)) (ite (= (_ bv11 32) ?x79466) (ite $x83389 (_ bv305 32) (_ bv304 32)) ?x73510))))
 (let ((?x59819 (bvadd (bvmul (_ bv365 32) (bvsub ?x76044 (_ bv1 32))) (bvsdiv (bvsub ?x76044 (_ bv1 32)) (_ bv4 32)))))
 (let ((?x60642 (bvadd (bvsub ?x59819 (bvsdiv (bvsub ?x76044 (_ bv1 32)) (_ bv100 32))) (bvsdiv (bvsub ?x76044 (_ bv1 32)) (_ bv400 32)))))
 (let ((?x77824 (bvadd (bvadd (bvsub (bvadd (bvadd ?x60642 ?x19479) (bvsub ?x19442 (_ bv1 32))) (_ bv730179 32)) (_ bv0 32)) (_ bv730179 32))))
 (let ((?x18121 (bvsmod ?x77824 (_ bv146097 32))))
 (let ((?x82293 (bvsdiv ?x18121 (_ bv36524 32))))
 (let ((?x67085 (ite (bvsle (_ bv4 32) ?x82293) (_ bv3 32) ?x82293)))
 (let ((?x76182 (bvsub ?x18121 (bvmul ?x67085 (_ bv36524 32)))))
 (let ((?x77833 (bvsmod ?x76182 (_ bv1461 32))))
 (let ((?x30692 (bvsdiv ?x77833 (_ bv365 32))))
 (let ((?x73298 (ite (bvsle (_ bv4 32) ?x30692) (_ bv3 32) ?x30692)))
 (let ((?x16212 (bvadd (bvadd (bvmul (bvsdiv ?x77824 (_ bv146097 32)) (_ bv400 32)) (bvmul ?x67085 (_ bv100 32))) (bvmul (bvsdiv ?x76182 (_ bv1461 32)) (_ bv4 32)))))
 (let ((?x79483 (bvadd (bvadd ?x16212 ?x73298) (_ bv1 32))))
 (let (($x47129 (or (and (= (bvsmod ?x79483 (_ bv4 32)) (_ bv0 32)) (and (distinct (bvsmod ?x79483 (_ bv100 32)) (_ bv0 32)) true)) (= (bvsmod ?x79483 (_ bv400 32)) (_ bv0 32)))))
 (let ((?x21435 (ite $x47129 (_ bv31 32) (_ bv31 32))))
 (let ((?x82342 (bvsub ?x77833 (bvmul ?x73298 (_ bv365 32)))))
 (let (($x20565 (bvsge ?x82342 ?x21435)))
 (let ((?x51252 (ite $x47129 (_ bv60 32) (_ bv59 32))))
 (let (($x41107 (bvsge ?x82342 ?x51252)))
 (let ((?x82425 (ite $x47129 (_ bv91 32) (_ bv90 32))))
 (let (($x32641 (bvsge ?x82342 ?x82425)))
 (let ((?x57298 (ite $x47129 (_ bv121 32) (_ bv120 32))))
 (let (($x19282 (bvsge ?x82342 ?x57298)))
 (let ((?x82280 (ite $x47129 (_ bv152 32) (_ bv151 32))))
 (let (($x73766 (bvsge ?x82342 ?x82280)))
 (let ((?x73715 (ite $x73766 (_ bv6 32) (ite $x19282 (_ bv5 32) (ite $x32641 (_ bv4 32) (ite $x41107 (_ bv3 32) (ite $x20565 (_ bv2 32) (_ bv1 32))))))))
 (let ((?x25991 (ite $x47129 (_ bv182 32) (_ bv181 32))))
 (let (($x24464 (bvsge ?x82342 ?x25991)))
 (let ((?x29319 (ite $x47129 (_ bv213 32) (_ bv212 32))))
 (let (($x37953 (bvsge ?x82342 ?x29319)))
 (let ((?x73991 (ite $x47129 (_ bv244 32) (_ bv243 32))))
 (let (($x31287 (bvsge ?x82342 ?x73991)))
 (let ((?x9643 (ite $x47129 (_ bv274 32) (_ bv273 32))))
 (let (($x41999 (bvsge ?x82342 ?x9643)))
 (let ((?x19455 (ite $x47129 (_ bv305 32) (_ bv304 32))))
 (let (($x41248 (bvsge ?x82342 ?x19455)))
 (let ((?x44545 (ite $x41248 (_ bv11 32) (ite $x41999 (_ bv10 32) (ite $x31287 (_ bv9 32) (ite $x37953 (_ bv8 32) (ite $x24464 (_ bv7 32) ?x73715)))))))
 (let ((?x20990 (ite $x47129 (_ bv335 32) (_ bv334 32))))
 (let (($x57340 (bvsge ?x82342 ?x20990)))
 (let (($x11357 (= (_ bv0 32) (_ bv0 32))))
 (let ((?x57540 (ite $x11357 ?x79466 (ite $x57340 (_ bv12 32) ?x44545))))
 (= x_plus_month ?x57540)))))))))))))))))))))))))))))))))))))))))))))))))))))))))))))))))))))))))))))))))))))))))))))))))))))))))))
(assert
 (let ((?x1201 (bvadd x_epoch (_ bv730179 32))))
 (let ((?x33573 (bvsmod ?x1201 (_ bv146097 32))))
 (let ((?x2516 (bvsdiv ?x33573 (_ bv36524 32))))
 (let ((?x15886 (ite (bvsle (_ bv4 32) ?x2516) (_ bv3 32) ?x2516)))
 (let ((?x8168 (bvsub ?x33573 (bvmul ?x15886 (_ bv36524 32)))))
 (let ((?x1140 (bvsmod ?x8168 (_ bv1461 32))))
 (let ((?x1161 (bvsdiv ?x1140 (_ bv365 32))))
 (let ((?x11749 (ite (bvsle (_ bv4 32) ?x1161) (_ bv3 32) ?x1161)))
 (let ((?x3564 (bvadd (bvadd (bvmul (bvsdiv ?x1201 (_ bv146097 32)) (_ bv400 32)) (bvmul ?x15886 (_ bv100 32))) (bvmul (bvsdiv ?x8168 (_ bv1461 32)) (_ bv4 32)))))
 (let ((?x26236 (bvadd (bvadd ?x3564 ?x11749) (_ bv1 32))))
 (let (($x11908 (or (and (= (bvsmod ?x26236 (_ bv4 32)) (_ bv0 32)) (and (distinct (bvsmod ?x26236 (_ bv100 32)) (_ bv0 32)) true)) (= (bvsmod ?x26236 (_ bv400 32)) (_ bv0 32)))))
 (let ((?x2337 (bvsub ?x1140 (bvmul ?x11749 (_ bv365 32)))))
 (let ((?x3734 (ite $x11908 (_ bv31 32) (_ bv31 32))))
 (let (($x5366 (bvsge ?x2337 ?x3734)))
 (let ((?x5792 (ite $x5366 (bvadd (bvsub ?x2337 ?x3734) (_ bv1 32)) (bvadd (bvsub ?x2337 (ite $x11908 (_ bv0 32) (_ bv0 32))) (_ bv1 32)))))
 (let ((?x47417 (ite $x11908 (_ bv60 32) (_ bv59 32))))
 (let (($x805 (bvsge ?x2337 ?x47417)))
 (let ((?x2296 (ite $x11908 (_ bv91 32) (_ bv90 32))))
 (let (($x3364 (bvsge ?x2337 ?x2296)))
 (let ((?x20760 (ite $x3364 (bvadd (bvsub ?x2337 ?x2296) (_ bv1 32)) (ite $x805 (bvadd (bvsub ?x2337 ?x47417) (_ bv1 32)) ?x5792))))
 (let ((?x37289 (ite $x11908 (_ bv121 32) (_ bv120 32))))
 (let (($x1945 (bvsge ?x2337 ?x37289)))
 (let ((?x2125 (ite $x11908 (_ bv152 32) (_ bv151 32))))
 (let (($x5091 (bvsge ?x2337 ?x2125)))
 (let ((?x5445 (ite $x5091 (bvadd (bvsub ?x2337 ?x2125) (_ bv1 32)) (ite $x1945 (bvadd (bvsub ?x2337 ?x37289) (_ bv1 32)) ?x20760))))
 (let ((?x1626 (ite $x11908 (_ bv182 32) (_ bv181 32))))
 (let (($x583 (bvsge ?x2337 ?x1626)))
 (let ((?x3068 (ite $x11908 (_ bv213 32) (_ bv212 32))))
 (let (($x2937 (bvsge ?x2337 ?x3068)))
 (let ((?x701 (ite $x2937 (bvadd (bvsub ?x2337 ?x3068) (_ bv1 32)) (ite $x583 (bvadd (bvsub ?x2337 ?x1626) (_ bv1 32)) ?x5445))))
 (let ((?x1549 (ite $x11908 (_ bv244 32) (_ bv243 32))))
 (let (($x2961 (bvsge ?x2337 ?x1549)))
 (let ((?x8141 (ite $x11908 (_ bv274 32) (_ bv273 32))))
 (let (($x2577 (bvsge ?x2337 ?x8141)))
 (let ((?x596 (ite $x2577 (bvadd (bvsub ?x2337 ?x8141) (_ bv1 32)) (ite $x2961 (bvadd (bvsub ?x2337 ?x1549) (_ bv1 32)) ?x701))))
 (let ((?x903 (ite $x11908 (_ bv305 32) (_ bv304 32))))
 (let (($x1761 (bvsge ?x2337 ?x903)))
 (let ((?x6357 (ite $x11908 (_ bv335 32) (_ bv334 32))))
 (let (($x783 (bvsge ?x2337 ?x6357)))
 (let ((?x42519 (ite $x783 (bvadd (bvsub ?x2337 ?x6357) (_ bv1 32)) (ite $x1761 (bvadd (bvsub ?x2337 ?x903) (_ bv1 32)) ?x596))))
 (let ((?x4253 (bvmul (_ bv0 32) (_ bv12 32))))
 (let ((?x51078 (bvadd ?x4253 (_ bv2 32))))
 (let ((?x61399 (ite $x5091 (_ bv6 32) (ite $x1945 (_ bv5 32) (ite $x3364 (_ bv4 32) (ite $x805 (_ bv3 32) (ite $x5366 (_ bv2 32) (_ bv1 32))))))))
 (let ((?x6068 (ite $x1761 (_ bv11 32) (ite $x2577 (_ bv10 32) (ite $x2961 (_ bv9 32) (ite $x2937 (_ bv8 32) (ite $x583 (_ bv7 32) ?x61399)))))))
 (let ((?x11059 (ite $x783 (_ bv12 32) ?x6068)))
 (let ((?x57332 (bvadd ?x11059 ?x51078)))
 (let ((?x87260 (bvsub (ite (bvuge ?x57332 (_ bv2147483648 32)) (bvsub ?x57332 (_ bv0 32)) ?x57332) (_ bv1 32))))
 (let ((?x73660 (bvsmod ?x87260 (_ bv12 32))))
 (let ((?x79466 (bvadd ?x73660 (_ bv1 32))))
 (let ((?x73236 (ite (or (= ?x79466 (_ bv4 32)) (= ?x79466 (_ bv6 32)) (= ?x79466 (_ bv9 32)) (= ?x79466 (_ bv11 32))) (_ bv30 32) (_ bv31 32))))
 (let ((?x9982 (bvsdiv ?x87260 (_ bv12 32))))
 (let ((?x42975 (ite (and (bvuge ?x87260 (_ bv2147483648 32)) (and (distinct (_ bv0 32) ?x73660) true)) (bvsub ?x9982 (_ bv1 32)) ?x9982)))
 (let ((?x73282 (bvadd (_ bv0 32) ?x42975)))
 (let ((?x76044 (bvadd ?x26236 ?x73282)))
 (let (($x83389 (or (and (= (bvsmod ?x76044 (_ bv4 32)) (_ bv0 32)) (and (distinct (bvsmod ?x76044 (_ bv100 32)) (_ bv0 32)) true)) (= (bvsmod ?x76044 (_ bv400 32)) (_ bv0 32)))))
 (let ((?x77727 (ite (= ?x79466 (_ bv2 32)) (ite $x83389 (_ bv29 32) (_ bv28 32)) ?x73236)))
 (let (($x58947 (bvsgt (_ bv1 32) ?x42519)))
 (let ((?x30279 (ite $x58947 (_ bv1 32) (ite (bvsgt ?x42519 ?x77727) ?x77727 ?x42519))))
 (let ((?x19442 (ite (bvsgt (_ bv1 32) ?x30279) (_ bv1 32) (ite (bvsgt ?x30279 ?x77727) ?x77727 ?x30279))))
 (let ((?x57993 (ite (= (_ bv2 32) ?x79466) (ite $x83389 (_ bv31 32) (_ bv31 32)) (ite (= (_ bv1 32) ?x79466) (ite $x83389 (_ bv0 32) (_ bv0 32)) (_ bv0 32)))))
 (let ((?x16318 (ite (= (_ bv4 32) ?x79466) (ite $x83389 (_ bv91 32) (_ bv90 32)) (ite (= (_ bv3 32) ?x79466) (ite $x83389 (_ bv60 32) (_ bv59 32)) ?x57993))))
 (let ((?x15146 (ite (= (_ bv6 32) ?x79466) (ite $x83389 (_ bv152 32) (_ bv151 32)) (ite (= (_ bv5 32) ?x79466) (ite $x83389 (_ bv121 32) (_ bv120 32)) ?x16318))))
 (let ((?x13048 (ite (= (_ bv8 32) ?x79466) (ite $x83389 (_ bv213 32) (_ bv212 32)) (ite (= (_ bv7 32) ?x79466) (ite $x83389 (_ bv182 32) (_ bv181 32)) ?x15146))))
 (let ((?x73510 (ite (= (_ bv10 32) ?x79466) (ite $x83389 (_ bv274 32) (_ bv273 32)) (ite (= (_ bv9 32) ?x79466) (ite $x83389 (_ bv244 32) (_ bv243 32)) ?x13048))))
 (let ((?x19479 (ite (= (_ bv12 32) ?x79466) (ite $x83389 (_ bv335 32) (_ bv334 32)) (ite (= (_ bv11 32) ?x79466) (ite $x83389 (_ bv305 32) (_ bv304 32)) ?x73510))))
 (let ((?x59819 (bvadd (bvmul (_ bv365 32) (bvsub ?x76044 (_ bv1 32))) (bvsdiv (bvsub ?x76044 (_ bv1 32)) (_ bv4 32)))))
 (let ((?x60642 (bvadd (bvsub ?x59819 (bvsdiv (bvsub ?x76044 (_ bv1 32)) (_ bv100 32))) (bvsdiv (bvsub ?x76044 (_ bv1 32)) (_ bv400 32)))))
 (let ((?x77824 (bvadd (bvadd (bvsub (bvadd (bvadd ?x60642 ?x19479) (bvsub ?x19442 (_ bv1 32))) (_ bv730179 32)) (_ bv0 32)) (_ bv730179 32))))
 (let ((?x18121 (bvsmod ?x77824 (_ bv146097 32))))
 (let ((?x82293 (bvsdiv ?x18121 (_ bv36524 32))))
 (let ((?x67085 (ite (bvsle (_ bv4 32) ?x82293) (_ bv3 32) ?x82293)))
 (let ((?x76182 (bvsub ?x18121 (bvmul ?x67085 (_ bv36524 32)))))
 (let ((?x77833 (bvsmod ?x76182 (_ bv1461 32))))
 (let ((?x30692 (bvsdiv ?x77833 (_ bv365 32))))
 (let ((?x73298 (ite (bvsle (_ bv4 32) ?x30692) (_ bv3 32) ?x30692)))
 (let ((?x16212 (bvadd (bvadd (bvmul (bvsdiv ?x77824 (_ bv146097 32)) (_ bv400 32)) (bvmul ?x67085 (_ bv100 32))) (bvmul (bvsdiv ?x76182 (_ bv1461 32)) (_ bv4 32)))))
 (let ((?x79483 (bvadd (bvadd ?x16212 ?x73298) (_ bv1 32))))
 (let (($x47129 (or (and (= (bvsmod ?x79483 (_ bv4 32)) (_ bv0 32)) (and (distinct (bvsmod ?x79483 (_ bv100 32)) (_ bv0 32)) true)) (= (bvsmod ?x79483 (_ bv400 32)) (_ bv0 32)))))
 (let ((?x82342 (bvsub ?x77833 (bvmul ?x73298 (_ bv365 32)))))
 (let ((?x21435 (ite $x47129 (_ bv31 32) (_ bv31 32))))
 (let (($x20565 (bvsge ?x82342 ?x21435)))
 (let ((?x57473 (ite $x20565 (bvadd (bvsub ?x82342 ?x21435) (_ bv1 32)) (bvadd (bvsub ?x82342 (ite $x47129 (_ bv0 32) (_ bv0 32))) (_ bv1 32)))))
 (let ((?x51252 (ite $x47129 (_ bv60 32) (_ bv59 32))))
 (let (($x41107 (bvsge ?x82342 ?x51252)))
 (let ((?x82425 (ite $x47129 (_ bv91 32) (_ bv90 32))))
 (let (($x32641 (bvsge ?x82342 ?x82425)))
 (let ((?x61638 (ite $x32641 (bvadd (bvsub ?x82342 ?x82425) (_ bv1 32)) (ite $x41107 (bvadd (bvsub ?x82342 ?x51252) (_ bv1 32)) ?x57473))))
 (let ((?x57298 (ite $x47129 (_ bv121 32) (_ bv120 32))))
 (let (($x19282 (bvsge ?x82342 ?x57298)))
 (let ((?x82280 (ite $x47129 (_ bv152 32) (_ bv151 32))))
 (let (($x73766 (bvsge ?x82342 ?x82280)))
 (let ((?x81472 (ite $x73766 (bvadd (bvsub ?x82342 ?x82280) (_ bv1 32)) (ite $x19282 (bvadd (bvsub ?x82342 ?x57298) (_ bv1 32)) ?x61638))))
 (let ((?x25991 (ite $x47129 (_ bv182 32) (_ bv181 32))))
 (let (($x24464 (bvsge ?x82342 ?x25991)))
 (let ((?x29319 (ite $x47129 (_ bv213 32) (_ bv212 32))))
 (let (($x37953 (bvsge ?x82342 ?x29319)))
 (let ((?x76739 (ite $x37953 (bvadd (bvsub ?x82342 ?x29319) (_ bv1 32)) (ite $x24464 (bvadd (bvsub ?x82342 ?x25991) (_ bv1 32)) ?x81472))))
 (let ((?x73991 (ite $x47129 (_ bv244 32) (_ bv243 32))))
 (let (($x31287 (bvsge ?x82342 ?x73991)))
 (let ((?x9643 (ite $x47129 (_ bv274 32) (_ bv273 32))))
 (let (($x41999 (bvsge ?x82342 ?x9643)))
 (let ((?x57353 (ite $x41999 (bvadd (bvsub ?x82342 ?x9643) (_ bv1 32)) (ite $x31287 (bvadd (bvsub ?x82342 ?x73991) (_ bv1 32)) ?x76739))))
 (let ((?x19455 (ite $x47129 (_ bv305 32) (_ bv304 32))))
 (let (($x41248 (bvsge ?x82342 ?x19455)))
 (let ((?x20990 (ite $x47129 (_ bv335 32) (_ bv334 32))))
 (let (($x57340 (bvsge ?x82342 ?x20990)))
 (let ((?x77750 (ite $x57340 (bvadd (bvsub ?x82342 ?x20990) (_ bv1 32)) (ite $x41248 (bvadd (bvsub ?x82342 ?x19455) (_ bv1 32)) ?x57353))))
 (let (($x11357 (= (_ bv0 32) (_ bv0 32))))
 (let ((?x5771 (ite $x11357 ?x19442 ?x77750)))
 (= x_plus_day ?x5771)))))))))))))))))))))))))))))))))))))))))))))))))))))))))))))))))))))))))))))))))))))))))))))))))))))))))))))))
(assert
 (bvsle (_ bv4294930771 32) x_plus_1_epoch))
(assert
 (bvsge (_ bv36523 32) x_plus_1_epoch))
(assert
 (= x_plus_1_epoch (bvadd x_epoch (_ bv61 32))))
(assert
 (= x_plus_epoch x_plus_1_epoch))
(check-sat)
